1 1 -2 0
1 1 3 0
1 -1 -4 0
1 -5 -6 0
1 5 2 0
1 -5 -3 0
1 7 8 0
1 -7 -9 0
1 7 2 0
1 10 -9 0
1 10 6 0
1 10 -2 0
1 10 11 0
1 -10 -12 0
1 -10 4 0
1 2 -13 0
1 2 14 0
1 -2 10 0
1 2 -5 0
1 -2 15 0
1 -2 16 0
1 2 17 0
1 -2 18 0
1 -4 -19 0
1 4 13 0
1 4 -16 0
1 4 -1 0
1 -6 -20 0
1 -6 21 0
1 -6 22 0
1 6 23 0
1 6 -7 0
1 3 -6 0
1 3 16 0
1 3 23 0
1 3 7 0
1 18 9 0
1 18 -11 0
1 18 12 0
1 18 -4 0
1 14 9 0
1 14 -2 0
1 -14 -4 0
1 -17 -8 0
1 -17 -13 0
1 -17 24 0
1 -17 2 0
1 17 23 0
1 17 25 0
1 -13 8 0
1 13 9 0
1 -13 26 0
1 13 2 0
1 -13 12 0
1 -13 17 0
1 13 -27 0
1 -13 4 0
1 12 -28 0
1 12 9 0
1 12 -14 0
1 -12 10 0
1 -12 18 0
1 12 -7 0
1 -9 -29 0
1 9 -10 0
1 -9 30 0
1 -9 -31 0
1 -9 12 0
1 9 18 0
1 -9 -32 0
1 -11 8 0
1 11 -20 0
1 11 13 0
1 11 10 0
1 -11 16 0
1 11 32 0
1 8 20 0
1 8 -13 0
1 -8 -33 0
1 -8 -34 0
1 -8 17 0
1 8 -7 0
1 31 -28 0
1 31 -9 0
1 -28 -26 0
1 -28 31 0
1 28 -27 0
1 30 -29 0
1 -30 26 0
1 -30 -34 0
1 30 12 0
1 30 27 0
1 29 -9 0
1 29 30 0
1 29 -25 0
1 25 29 0
1 -25 -26 0
1 25 -31 0
1 25 17 0
1 26 29 0
1 -26 -28 0
1 26 13 0
1 -26 17 0
1 26 25 0
1 -27 -29 0
1 -27 28 0
1 -27 24 0
1 -27 -35 0
1 27 33 0
1 27 -30 0
1 27 -31 0
1 -27 36 0
1 24 -13 0
1 -24 -35 0
1 -24 30 0
1 24 17 0
1 -24 -32 0
1 -37 38 0
1 37 -39 0
1 37 -6 0
1 -37 40 0
1 37 18 0
1 37 3 0
1 -21 -38 0
1 -21 -39 0
1 -21 6 0
1 21 41 0
1 -21 37 0
1 21 -3 0
1 23 -38 0
1 -23 42 0
1 23 43 0
1 23 -6 0
1 23 44 0
1 23 3 0
1 -45 13 0
1 -45 -39 0
1 45 42 0
1 -45 41 0
1 -45 -3 0
1 -39 -40 0
1 -39 -46 0
1 39 20 0
1 39 -23 0
1 39 -37 0
1 -40 -16 0
1 40 -23 0
1 -38 21 0
1 -38 41 0
1 41 23 0
1 -16 20 0
1 16 42 0
1 16 -11 0
1 16 40 0
1 -16 4 0
1 20 39 0
1 -20 6 0
1 -20 2 0
1 20 -11 0
1 -20 16 0
1 20 -40 0
1 20 44 0
1 -20 -3 0
1 -34 -46 0
1 -34 39 0
1 -34 -42 0
1 -34 22 0
1 34 -11 0
1 -34 44 0
1 34 -47 0
1 34 48 0
1 -46 -39 0
1 -46 -15 0
1 46 40 0
1 -46 -44 0
1 46 -47 0
1 46 48 0
1 -43 -34 0
1 43 23 0
1 -43 -47 0
1 43 32 0
1 -47 -46 0
1 -47 43 0
1 -47 35 0
1 47 -33 0
1 -47 -16 0
1 -47 -36 0
1 -42 20 0
1 42 45 0
1 42 -23 0
1 -42 44 0
1 44 20 0
1 -44 -45 0
1 33 19 0
1 33 -8 0
1 -33 -43 0
1 33 22 0
1 -33 11 0
1 -33 -12 0
1 -33 -27 0
1 -33 -48 0
1 -32 -43 0
1 -32 33 0
1 -32 -12 0
1 32 47 0
1 -32 -48 0
1 -35 19 0
1 35 -24 0
1 -35 -43 0
1 -35 -22 0
1 35 -36 0
1 35 48 0
1 36 -19 0
1 36 43 0
1 36 -15 0
1 36 27 0
1 -36 48 0
1 -15 -35 0
1 -15 -2 0
1 15 34 0
1 15 36 0
1 19 33 0
1 19 -4 0
1 19 -36 0
1 22 -46 0
1 -22 35 0
1 -22 -6 0
1 -22 -33 0
1 22 -34 0
1 22 36 0
1 -22 48 0
1 48 -46 0
1 -48 22 0
1 -48 33 0
1 48 -34 0
1 -48 36 0
